     Program PWSCF v.6.5 starts on 14Oct2020 at 21: 9: 2

     Reading input from basic.in

     Current dimensions of program PWSCF are:
     Max number of different atomic species (ntypx) = 10
     Max number of k-points (npk) =  40000
     Max angular momentum in pseudopotentials (lmaxx) =  3
     Message from routine volume:
     axis vectors are left-handed

     IMPORTANT: XC functional enforced from input :
     Exchange-correlation= PBE
                           (   1   4   3   4   0   0   0)
     Any further DFT definition will be discarded
     Please, verify this is what you really want

               file Si.pbe-n-kjpaw_psl.1.0.0.UPF: wavefunction(s)  3S 3P renormalized

     Subspace diagonalization in iterative solution of the eigenvalue problem:
     a serial algorithm will be used

     Message from routine setup:
     using ibrav=0 with symmetry is DISCOURAGED, use correct ibrav instead

     bravais-lattice index     =            0
     lattice parameter (alat)  =      10.2625  a.u.
     unit-cell volume          =     135.1058 (a.u.)^3
     number of atoms/cell      =            2
     number of atomic types    =            1
     number of electrons       =         8.00
     number of Kohn-Sham states=            8
     kinetic-energy cutoff     =      50.0000  Ry
     charge density cutoff     =     200.0000  Ry
     convergence threshold     =      1.0E-08
     mixing beta               =       0.7000
     number of iterations used =            8  plain     mixing
     Exchange-correlation= PBE
                           (   1   4   3   4   0   0   0)

     celldm(1)=  10.262536  celldm(2)=   0.000000  celldm(3)=   0.000000
     celldm(4)=   0.000000  celldm(5)=   0.000000  celldm(6)=   0.000000

     crystal axes: (cart. coord. in units of alat)
               a(1) = (   0.500000   0.500000   0.500000 )
               a(2) = (   0.000000   0.000000   0.500000 )
               a(3) = (   0.000000   0.500000   0.500000 )

     reciprocal axes: (cart. coord. in units 2 pi/alat)
               b(1) = (  2.000000 -0.000000 -0.000000 )
               b(2) = ( -0.000000 -2.000000  2.000000 )
               b(3) = ( -2.000000  2.000000 -0.000000 )

     PseudoPot. # 1 for Si read from file:
     ./Si.pbe-n-kjpaw_psl.1.0.0.UPF
     MD5 check sum: c39c59da582df4a0d9f10159256ea34e
     Pseudo is Projector augmented-wave + core cor, Zval =  4.0
     Generated using "atomic" code by A. Dal Corso v.6.3
     Shape of augmentation charge: PSQ
     Using radial grid of 1141 points,  6 beta functions with:
                l(1) =   0
                l(2) =   0
                l(3) =   1
                l(4) =   1
                l(5) =   2
                l(6) =   2
     Q(r) pseudized with 0 coefficients

     atomic species   valence    mass     pseudopotential
        Si             4.00    28.08500     Si( 1.00)

      8 Sym. Ops., with inversion, found ( 4 have fractional translation)

   Cartesian axes

     site n.     atom                  positions (alat units)
         1           Si  tau(   1) = (   0.0000000   0.0000000   0.0000000  )
         2           Si  tau(   2) = (   0.1250000   0.2500000   0.3750000  )

     number of k points=    64  Marzari-Vanderbilt smearing, width (Ry)=  0.0050
                       cart. coord. in units 2pi/alat
        k(    1) = (   0.0000000   0.0000000   0.0000000), wk =   0.0058309
        k(    2) = (  -0.2857143   0.2857143   0.0000000), wk =   0.0466472
        k(    3) = (  -0.5714286   0.5714286   0.0000000), wk =   0.0466472
        k(    4) = (  -0.8571429   0.8571429   0.0000000), wk =   0.0466472
        k(    5) = (  -0.5714286   0.2857143   0.2857143), wk =   0.0466472
        k(    6) = (  -0.8571429   0.5714286   0.2857143), wk =   0.0466472
        k(    7) = (   0.8571429  -1.1428571   0.2857143), wk =   0.0466472
        k(    8) = (   0.8571429  -1.4285714   0.5714286), wk =   0.0466472
        k(    9) = (   0.2857143   0.0000000   0.0000000), wk =   0.0233236
        k(   10) = (  -0.2857143   0.5714286   0.0000000), wk =   0.0466472
        k(   11) = (  -0.5714286   0.8571429   0.0000000), wk =   0.0466472
        k(   12) = (   0.2857143  -0.2857143   0.2857143), wk =   0.0233236
        k(   13) = (  -0.5714286   0.5714286   0.2857143), wk =   0.0466472
        k(   14) = (   0.8571429  -1.1428571   0.5714286), wk =   0.0466472
        k(   15) = (  -0.2857143  -0.2857143   0.8571429), wk =   0.0466472
        k(   16) = (  -0.5714286   1.4285714  -0.5714286), wk =   0.0233236
        k(   17) = (   0.5714286   0.0000000   0.0000000), wk =   0.0233236
        k(   18) = (  -0.2857143   0.8571429   0.0000000), wk =   0.0466472
        k(   19) = (   0.8571429  -1.1428571   0.8571429), wk =   0.0233236
        k(   20) = (   0.8571429   0.0000000   0.0000000), wk =   0.0233236
        k(   21) = (   0.2857143   0.0000000   0.2857143), wk =   0.0116618
        k(   22) = (   0.2857143   0.0000000  -0.2857143), wk =   0.0116618
        k(   23) = (   0.5714286   0.0000000   0.5714286), wk =   0.0116618
        k(   24) = (   0.5714286   0.0000000  -0.5714286), wk =   0.0116618
        k(   25) = (   0.8571429   0.0000000   0.8571429), wk =   0.0116618
        k(   26) = (   0.8571429   0.0000000  -0.8571429), wk =   0.0116618
        k(   27) = (   0.5714286  -0.2857143   0.2857143), wk =   0.0466472
        k(   28) = (   0.2857143  -0.5714286   0.2857143), wk =   0.0233236
        k(   29) = (   0.2857143   0.5714286  -0.2857143), wk =   0.0233236
        k(   30) = (   0.8571429  -0.5714286   0.2857143), wk =   0.0466472
        k(   31) = (   0.8571429   0.2857143   0.5714286), wk =   0.0466472
        k(   32) = (   0.8571429  -0.2857143  -0.5714286), wk =   0.0466472
        k(   33) = (   0.2857143  -0.8571429   0.5714286), wk =   0.0466472
        k(   34) = (   0.2857143   0.8571429  -0.5714286), wk =   0.0466472
        k(   35) = (  -0.8571429   1.1428571   0.2857143), wk =   0.0466472
        k(   36) = (  -0.8571429   0.2857143  -1.1428571), wk =   0.0233236
        k(   37) = (  -0.8571429  -0.2857143   1.1428571), wk =   0.0233236
        k(   38) = (  -0.8571429   1.4285714   0.5714286), wk =   0.0466472
        k(   39) = (   0.5714286   0.8571429  -1.4285714), wk =   0.0233236
        k(   40) = (   0.5714286  -0.8571429   1.4285714), wk =   0.0233236
        k(   41) = (   0.0000000   0.2857143   0.0000000), wk =   0.0116618
        k(   42) = (   0.2857143   0.0000000   0.5714286), wk =   0.0233236
        k(   43) = (   0.2857143   0.0000000  -0.5714286), wk =   0.0233236
        k(   44) = (   0.0000000  -0.2857143   0.5714286), wk =   0.0466472
        k(   45) = (   0.5714286   0.0000000   0.8571429), wk =   0.0233236
        k(   46) = (   0.5714286   0.0000000  -0.8571429), wk =   0.0233236
        k(   47) = (   0.0000000  -0.5714286   0.8571429), wk =   0.0466472
        k(   48) = (  -0.2857143   0.2857143   0.2857143), wk =   0.0233236
        k(   49) = (   0.5714286  -0.5714286   0.2857143), wk =   0.0466472
        k(   50) = (   0.5714286   0.2857143   0.5714286), wk =   0.0233236
        k(   51) = (   0.5714286  -0.2857143  -0.5714286), wk =   0.0233236
        k(   52) = (  -0.8571429   1.1428571   0.5714286), wk =   0.0466472
        k(   53) = (  -0.8571429   0.5714286  -1.1428571), wk =   0.0233236
        k(   54) = (  -0.8571429  -0.5714286   1.1428571), wk =   0.0233236
        k(   55) = (   0.2857143   0.2857143   0.8571429), wk =   0.0466472
        k(   56) = (   0.2857143   0.8571429  -0.2857143), wk =   0.0233236
        k(   57) = (   0.2857143  -0.8571429   0.2857143), wk =   0.0233236
        k(   58) = (   0.5714286  -1.4285714  -0.5714286), wk =   0.0233236
        k(   59) = (   0.0000000   0.5714286   0.0000000), wk =   0.0116618
        k(   60) = (   0.2857143   0.0000000   0.8571429), wk =   0.0233236
        k(   61) = (   0.2857143   0.0000000  -0.8571429), wk =   0.0233236
        k(   62) = (   0.0000000  -0.2857143   0.8571429), wk =   0.0466472
        k(   63) = (  -0.8571429   1.1428571   0.8571429), wk =   0.0233236
        k(   64) = (   0.0000000   0.8571429   0.0000000), wk =   0.0116618

     Initial potential from superposition of free atoms

     starting charge    7.99888, renormalised to    8.00000
     Starting wfcs are    8 randomized atomic wfcs
     Checking if some PAW data can be deallocated...

     Self-consistent Calculation

     iteration #  1     ecut=    50.00 Ry     beta= 0.70
     Davidson diagonalization with overlap
     ethr =  1.00E-02,  avg # of iterations =  4.3

     total energy              =     -92.45430093 Ry
     Harris-Foulkes estimate   =     -92.60019997 Ry
     estimated scf accuracy    <       0.23753987 Ry

[...]

     total energy              =     -92.51591714 Ry
     Harris-Foulkes estimate   =     -92.51591730 Ry
     estimated scf accuracy    <       0.00000040 Ry

     iteration #  6     ecut=    50.00 Ry     beta= 0.70
     Davidson diagonalization with overlap
     ethr =  5.02E-09,  avg # of iterations =  1.6

     End of self-consistent calculation

          k = 0.0000 0.0000 0.0000 (   799 PWs)   bands (ev):

    -2.2402  13.9513  15.1759  15.5935  16.3281  16.6939  20.1833  30.2085

          k =-0.2857 0.2857 0.0000 (   802 PWs)   bands (ev):

[...]

          k =-0.8571 1.1429 0.8571 (   801 PWs)   bands (ev):

[...]

          k = 0.0000 0.8571 0.0000 (   812 PWs)   bands (ev):

     1.2613   3.8904  18.6000  18.9219  19.3093  19.4461  21.7140  22.5653

     the Fermi energy is    15.8989 ev

!    total energy              =     -92.51591723 Ry
     Harris-Foulkes estimate   =     -92.51591723 Ry
     estimated scf accuracy    <          5.5E-09 Ry

     total all-electron energy =     -1159.207647 Ry

     The total energy is the sum of the following terms:

     one-electron contribution =      12.57585077 Ry
     hartree contribution      =       0.57464652 Ry
     xc contribution           =     -13.29447545 Ry
     ewald contribution        =     -21.00359249 Ry
     one-center paw contrib.   =     -71.36827480 Ry
     smearing contrib. (-TS)   =      -0.00007176 Ry

     convergence has been achieved in   6 iterations

     Forces acting on atoms (cartesian axes, Ry/au):

     atom    1 type  1   force =    -0.74512461   -0.00000000    0.74512461
     atom    2 type  1   force =     0.74512461    0.00000000   -0.74512461

     Total force =     1.490249     Total SCF correction =     0.000026

     Computing stress (Cartesian axis) and pressure

          total   stress  (Ry/bohr**3)                   (kbar)     P=     2461.18
   0.00854112  -0.00000000  -0.00656427         1256.44       -0.00     -965.64
   0.00000000   0.03311013   0.00000000            0.00     4870.67        0.00
  -0.00656427   0.00000000   0.00854112         -965.64        0.00     1256.44

     Writing output data file ./basic.save/

     General routines

     Parallel routines

   This run was terminated on:  21: 9:20  14Oct2020

   JOB DONE.