     Program PWSCF v.6.5 starts on 30Oct2020 at 20:38:43

     Reading input from halite.in

     Current dimensions of program PWSCF are:
     Max number of different atomic species (ntypx) = 10
     Max number of k-points (npk) =  40000
     Max angular momentum in pseudopotentials (lmaxx) =  3
     Message from routine volume:
     axis vectors are left-handed

     IMPORTANT: XC functional enforced from input :
     Exchange-correlation= PBE
                           (   1   4   3   4   0   0   0)
     Any further DFT definition will be discarded
     Please, verify this is what you really want

               file Na.pbe-spn-kjpaw_psl.1.0.0.UPF: wavefunction(s)  2P renormalized
               file Cl.pbe-n-kjpaw_psl.1.0.0.UPF: wavefunction(s)  3S 3P renormalized

     Subspace diagonalization in iterative solution of the eigenvalue problem:
     a serial algorithm will be used

     Message from routine setup:
     using ibrav=0 with symmetry is DISCOURAGED, use correct ibrav instead

     bravais-lattice index     =            0
     lattice parameter (alat)  =      10.6591  a.u.
     unit-cell volume          =     302.7633 (a.u.)^3
     number of atoms/cell      =            2
     number of atomic types    =            2
     number of electrons       =        16.00
     number of Kohn-Sham states=           12
     kinetic-energy cutoff     =     100.0000  Ry
     charge density cutoff     =     600.0000  Ry
     convergence threshold     =      1.0E-08
     mixing beta               =       0.7000
     number of iterations used =            8  plain     mixing
     Exchange-correlation= PBE
                           (   1   4   3   4   0   0   0)

     celldm(1)=  10.659114  celldm(2)=   0.000000  celldm(3)=   0.000000
     celldm(4)=   0.000000  celldm(5)=   0.000000  celldm(6)=   0.000000

     crystal axes: (cart. coord. in units of alat)
               a(1) = (   0.500000   0.500000   0.000000 )
               a(2) = (   0.500000   0.000000   0.500000 )
               a(3) = (   0.000000   0.500000   0.500000 )

     reciprocal axes: (cart. coord. in units 2 pi/alat)
               b(1) = (  1.000000  1.000000 -1.000000 )
               b(2) = (  1.000000 -1.000000  1.000000 )
               b(3) = ( -1.000000  1.000000  1.000000 )

     PseudoPot. # 1 for Na read from file:
     ./Na.pbe-spn-kjpaw_psl.1.0.0.UPF
     MD5 check sum: 05b4deb74e3932c23ab016979dc8b5d4
     Pseudo is Projector augmented-wave + core cor, Zval =  9.0
     Generated using "atomic" code by A. Dal Corso v.6.3
     Shape of augmentation charge: PSQ
     Using radial grid of 1121 points,  4 beta functions with:
                l(1) =   0
                l(2) =   0
                l(3) =   1
                l(4) =   1
     Q(r) pseudized with 0 coefficients

     PseudoPot. # 2 for Cl read from file:
     ./Cl.pbe-n-kjpaw_psl.1.0.0.UPF
     MD5 check sum: 530da96d25dcb7781b0586ca00827062
     Pseudo is Projector augmented-wave + core cor, Zval =  7.0
     Generated using "atomic" code by A. Dal Corso v.6.3
     Shape of augmentation charge: PSQ
     Using radial grid of 1157 points,  6 beta functions with:
                l(1) =   0
                l(2) =   0
                l(3) =   1
                l(4) =   1
                l(5) =   2
                l(6) =   2
     Q(r) pseudized with 0 coefficients

     atomic species   valence    mass     pseudopotential
        Na             9.00    22.98900     Na( 1.00)
        Cl             7.00    35.45150     Cl( 1.00)

     48 Sym. Ops., with inversion, found

   Cartesian axes

     site n.     atom                  positions (alat units)
         1           Na  tau(   1) = (   0.0000000   0.0000000   0.0000000  )
         2           Cl  tau(   2) = (   0.5000000   0.5000000   0.5000000  )

     number of k points=    56  Marzari-Vanderbilt smearing, width (Ry)=  0.0050
                       cart. coord. in units 2pi/alat
        k(    1) = (   0.0000000   0.0000000   0.0000000), wk =   0.0015026
        k(    2) = (  -0.0909091   0.0909091   0.0909091), wk =   0.0120210
        k(    3) = (  -0.1818182   0.1818182   0.1818182), wk =   0.0120210
        k(    4) = (  -0.2727273   0.2727273   0.2727273), wk =   0.0120210
        k(    5) = (  -0.3636364   0.3636364   0.3636364), wk =   0.0120210
        k(    6) = (  -0.4545455   0.4545455   0.4545455), wk =   0.0120210
        k(    7) = (   0.0000000   0.0000000   0.1818182), wk =   0.0090158
        k(    8) = (  -0.0909091   0.0909091   0.2727273), wk =   0.0360631
        k(    9) = (  -0.1818182   0.1818182   0.3636364), wk =   0.0360631
        k(   10) = (  -0.2727273   0.2727273   0.4545455), wk =   0.0360631
        k(   11) = (  -0.3636364   0.3636364   0.5454545), wk =   0.0360631
        k(   12) = (   0.5454545  -0.5454545  -0.3636364), wk =   0.0360631
        k(   13) = (   0.4545455  -0.4545455  -0.2727273), wk =   0.0360631
        k(   14) = (   0.3636364  -0.3636364  -0.1818182), wk =   0.0360631
        k(   15) = (   0.2727273  -0.2727273  -0.0909091), wk =   0.0360631
        k(   16) = (   0.1818182  -0.1818182  -0.0000000), wk =   0.0180316
        k(   17) = (   0.0000000   0.0000000   0.3636364), wk =   0.0090158
        k(   18) = (  -0.0909091   0.0909091   0.4545455), wk =   0.0360631
        k(   19) = (  -0.1818182   0.1818182   0.5454545), wk =   0.0360631
        k(   20) = (  -0.2727273   0.2727273   0.6363636), wk =   0.0360631
        k(   21) = (   0.6363636  -0.6363636  -0.2727273), wk =   0.0360631
        k(   22) = (   0.5454545  -0.5454545  -0.1818182), wk =   0.0360631
        k(   23) = (   0.4545455  -0.4545455  -0.0909091), wk =   0.0360631
        k(   24) = (   0.3636364  -0.3636364   0.0000000), wk =   0.0180316
        k(   25) = (   0.0000000   0.0000000   0.5454545), wk =   0.0090158
        k(   26) = (  -0.0909091   0.0909091   0.6363636), wk =   0.0360631
        k(   27) = (  -0.1818182   0.1818182   0.7272727), wk =   0.0360631
        k(   28) = (   0.7272727  -0.7272727  -0.1818182), wk =   0.0360631
        k(   29) = (   0.6363636  -0.6363636  -0.0909091), wk =   0.0360631
        k(   30) = (   0.5454545  -0.5454545   0.0000000), wk =   0.0180316
        k(   31) = (   0.0000000   0.0000000   0.7272727), wk =   0.0090158
        k(   32) = (  -0.0909091   0.0909091   0.8181818), wk =   0.0360631
        k(   33) = (   0.8181818  -0.8181818  -0.0909091), wk =   0.0360631
        k(   34) = (   0.7272727  -0.7272727   0.0000000), wk =   0.0180316
        k(   35) = (   0.0000000   0.0000000   0.9090909), wk =   0.0090158
        k(   36) = (   0.9090909  -0.9090909  -0.0000000), wk =   0.0180316
        k(   37) = (   0.0000000   0.1818182   0.3636364), wk =   0.0360631
        k(   38) = (  -0.0909091   0.2727273   0.4545455), wk =   0.0721262
        k(   39) = (  -0.1818182   0.3636364   0.5454545), wk =   0.0721262
        k(   40) = (   0.7272727  -0.5454545  -0.3636364), wk =   0.0721262
        k(   41) = (   0.0000000   0.1818182   0.5454545), wk =   0.0360631
        k(   42) = (  -0.0909091   0.2727273   0.6363636), wk =   0.0721262
        k(   43) = (   0.8181818  -0.6363636  -0.2727273), wk =   0.0721262
        k(   44) = (   0.7272727  -0.5454545  -0.1818182), wk =   0.0721262
        k(   45) = (   0.6363636  -0.4545455  -0.0909091), wk =   0.0721262
        k(   46) = (   0.5454545  -0.3636364   0.0000000), wk =   0.0360631
        k(   47) = (   0.0000000   0.1818182   0.7272727), wk =   0.0360631
        k(   48) = (   0.9090909  -0.7272727  -0.1818182), wk =   0.0721262
        k(   49) = (   0.8181818  -0.6363636  -0.0909091), wk =   0.0721262
        k(   50) = (   0.7272727  -0.5454545   0.0000000), wk =   0.0360631
        k(   51) = (   1.0000000  -0.8181818  -0.0909091), wk =   0.0360631
        k(   52) = (   0.9090909  -0.7272727   0.0000000), wk =   0.0360631
        k(   53) = (   1.0000000  -0.6363636  -0.2727273), wk =   0.0360631
        k(   54) = (   0.9090909  -0.5454545  -0.1818182), wk =   0.0721262
        k(   55) = (   1.0000000  -0.6363636  -0.0909091), wk =   0.0360631
        k(   56) = (   0.9090909  -0.5454545   0.0000000), wk =   0.0360631

     Initial potential from superposition of free atoms

     starting charge   15.99370, renormalised to   16.00000
     Starting wfcs are    9 randomized atomic wfcs +    3 random wfcs
     Checking if some PAW data can be deallocated...

     Self-consistent Calculation

     iteration #  1     ecut=   100.00 Ry     beta= 0.70
     Davidson diagonalization with overlap
     ethr =  1.00E-02,  avg # of iterations =  5.6

     Threshold (ethr) on eigenvalues was too large:
     Diagonalizing with lowered threshold

     Davidson diagonalization with overlap
     ethr =  3.38E-04,  avg # of iterations =  1.2

     total energy              =    -188.83272736 Ry
     Harris-Foulkes estimate   =    -188.86430340 Ry
     estimated scf accuracy    <       0.05140153 Ry

[...]

     total energy              =    -188.84998570 Ry
     Harris-Foulkes estimate   =    -188.84998554 Ry
     estimated scf accuracy    <       0.00000011 Ry

     iteration #  6     ecut=   100.00 Ry     beta= 0.70
     Davidson diagonalization with overlap
     ethr =  6.79E-10,  avg # of iterations =  2.6

     End of self-consistent calculation

          k = 0.0000 0.0000 0.0000 (  5029 PWs)   bands (ev):

   -47.9564 -19.8693 -19.8693 -19.8693 -11.6948   0.9617   0.9617   0.9617
     6.0644  12.0010  12.0010  12.0010

          k =-0.0909 0.0909 0.0909 (  5062 PWs)   bands (ev):

[...]

          k =-0.0909 0.2727 0.6364 (  5122 PWs)   bands (ev):

[...]

          k = 0.9091-0.5455 0.0000 (  5130 PWs)   bands (ev):

   -47.9554 -19.8840 -19.8839 -19.8781 -11.2990  -0.2789  -0.2041   0.2743
     9.7482  10.3409  10.8671  12.4694

     the Fermi energy is     3.7188 ev

!    total energy              =    -188.84998573 Ry
     Harris-Foulkes estimate   =    -188.84998574 Ry
     estimated scf accuracy    <          2.2E-09 Ry

     total all-electron energy =     -1248.137001 Ry

     The total energy is the sum of the following terms:

     one-electron contribution =     -80.91609913 Ry
     hartree contribution      =      47.14337751 Ry
     xc contribution           =     -25.67410694 Ry
     ewald contribution        =     -68.79919271 Ry
     one-center paw contrib.   =     -60.60396446 Ry
     smearing contrib. (-TS)   =       0.00000000 Ry

     convergence has been achieved in   6 iterations

     Forces acting on atoms (cartesian axes, Ry/au):

     atom    1 type  1   force =     0.00000000    0.00000000   -0.00000000
     atom    2 type  2   force =     0.00000000    0.00000000    0.00000000

     Total force =     0.000000     Total SCF correction =     0.000000

     Computing stress (Cartesian axis) and pressure

          total   stress  (Ry/bohr**3)                   (kbar)     P=        8.01
   0.00005446  -0.00000000  -0.00000000            8.01       -0.00       -0.00
  -0.00000000   0.00005446  -0.00000000           -0.00        8.01       -0.00
  -0.00000000  -0.00000000   0.00005446           -0.00       -0.00        8.01

     Writing output data file ./halite.save/

     General routines

     Parallel routines

   This run was terminated on:  20:40:22  30Oct2020

   JOB DONE.