     Program PWSCF v.6.5 starts on  9May2021 at 17:34:59

     Reading input from input-1.in

     Current dimensions of program PWSCF are:
     Max number of different atomic species (ntypx) = 10
     Max number of k-points (npk) =  40000
     Max angular momentum in pseudopotentials (lmaxx) =  3

     IMPORTANT: XC functional enforced from input :
     Exchange-correlation= PBE
                           (   1   4   3   4   0   0   0)
     Any further DFT definition will be discarded
     Please, verify this is what you really want

               file Pb.pbe-dn-kjpaw_psl.0.2.2.UPF: wavefunction(s)  6S renormalized
               file O.pbe-n-kjpaw_psl.0.1.UPF: wavefunction(s)  2P renormalized

     Subspace diagonalization in iterative solution of the eigenvalue problem:
     a serial algorithm will be used

     Message from routine setup:
     using ibrav=0 with symmetry is DISCOURAGED, use correct ibrav instead

     bravais-lattice index     =            0
     lattice parameter (alat)  =       7.5105  a.u.
     unit-cell volume          =     535.3237 (a.u.)^3
     number of atoms/cell      =            4
     number of atomic types    =            2
     number of electrons       =        40.00
     number of Kohn-Sham states=           24
     kinetic-energy cutoff     =      90.0000  Ry
     charge density cutoff     =     900.0000  Ry
     convergence threshold     =      1.0E-08
     mixing beta               =       0.7000
     number of iterations used =            8  plain     mixing
     Exchange-correlation= PBE
                           (   1   4   3   4   0   0   0)
     nstep                     =           50

     celldm(1)=   7.510528  celldm(2)=   0.000000  celldm(3)=   0.000000
     celldm(4)=   0.000000  celldm(5)=   0.000000  celldm(6)=   0.000000

     crystal axes: (cart. coord. in units of alat)
               a(1) = (   1.000000   0.000000   0.000000 )
               a(2) = (   0.000000   1.000000   0.000000 )
               a(3) = (   0.000000   0.000000   1.263587 )

     reciprocal axes: (cart. coord. in units 2 pi/alat)
               b(1) = (  1.000000  0.000000  0.000000 )
               b(2) = (  0.000000  1.000000  0.000000 )
               b(3) = (  0.000000  0.000000  0.791398 )

     PseudoPot. # 1 for Pb read from file:
     ./Pb.pbe-dn-kjpaw_psl.0.2.2.UPF
     MD5 check sum: f59221ed870a8203cfe6076f2d6248d0
     Pseudo is Projector augmented-wave + core cor, Zval = 14.0
     Generated using "atomic" code by A. Dal Corso v.5.0.2 svn rev. 9415
     Shape of augmentation charge: PSQ
     Using radial grid of 1281 points,  6 beta functions with:
                l(1) =   0
                l(2) =   0
                l(3) =   1
                l(4) =   1
                l(5) =   2
                l(6) =   2
     Q(r) pseudized with 0 coefficients

     PseudoPot. # 2 for O  read from file:
     ./O.pbe-n-kjpaw_psl.0.1.UPF
     MD5 check sum: 833c495a5d0f9b75bf046115549bffff
     Pseudo is Projector augmented-wave + core cor, Zval =  6.0
     Generated using "atomic" code by A. Dal Corso v.6.3
     Shape of augmentation charge: BESSEL
     Using radial grid of 1095 points,  4 beta functions with:
                l(1) =   0
                l(2) =   0
                l(3) =   1
                l(4) =   1
     Q(r) pseudized with 0 coefficients

     atomic species   valence    mass     pseudopotential
        Pb            14.00   207.20000     Pb( 1.00)
        O              6.00    15.99900     O ( 1.00)

     16 Sym. Ops., with inversion, found ( 8 have fractional translation)

   Cartesian axes

     site n.     atom                  positions (alat units)
         1           Pb  tau(   1) = (   0.0000000   0.5000000   0.3051637  )
         2           Pb  tau(   2) = (   0.5000000   0.0000000   0.9584233  )
         3           O   tau(   3) = (   0.0000000   0.0000000   0.0000000  )
         4           O   tau(   4) = (   0.5000000   0.5000000   0.0000000  )

     number of k points=    18  Marzari-Vanderbilt smearing, width (Ry)=  0.0050
                       cart. coord. in units 2pi/alat
        k(    1) = (   0.0000000   0.0000000   0.0000000), wk =   0.0160000
        k(    2) = (   0.0000000   0.0000000   0.1582796), wk =   0.0320000
        k(    3) = (   0.0000000   0.0000000   0.3165591), wk =   0.0320000
        k(    4) = (   0.0000000   0.2000000   0.0000000), wk =   0.0640000
        k(    5) = (   0.0000000   0.2000000   0.1582796), wk =   0.1280000
        k(    6) = (   0.0000000   0.2000000   0.3165591), wk =   0.1280000
        k(    7) = (   0.0000000   0.4000000   0.0000000), wk =   0.0640000
        k(    8) = (   0.0000000   0.4000000   0.1582796), wk =   0.1280000
        k(    9) = (   0.0000000   0.4000000   0.3165591), wk =   0.1280000
        k(   10) = (   0.2000000   0.2000000   0.0000000), wk =   0.0640000
        k(   11) = (   0.2000000   0.2000000   0.1582796), wk =   0.1280000
        k(   12) = (   0.2000000   0.2000000   0.3165591), wk =   0.1280000
        k(   13) = (   0.2000000   0.4000000   0.0000000), wk =   0.1280000
        k(   14) = (   0.2000000   0.4000000   0.1582796), wk =   0.2560000
        k(   15) = (   0.2000000   0.4000000   0.3165591), wk =   0.2560000
        k(   16) = (   0.4000000   0.4000000   0.0000000), wk =   0.0640000
        k(   17) = (   0.4000000   0.4000000   0.1582796), wk =   0.1280000
        k(   18) = (   0.4000000   0.4000000   0.3165591), wk =   0.1280000

     Initial potential from superposition of free atoms

     starting charge   39.99529, renormalised to   40.00000
     Starting wfcs are   26 randomized atomic wfcs
     Checking if some PAW data can be deallocated...

     Self-consistent Calculation

     iteration #  1     ecut=    90.00 Ry     beta= 0.70
     Davidson diagonalization with overlap
     ethr =  1.00E-02,  avg # of iterations =  2.2

     total energy              =   -1823.57440576 Ry
     Harris-Foulkes estimate   =   -1824.77247159 Ry
     estimated scf accuracy    <       1.46500197 Ry

[...]

     End of self-consistent calculation

          k = 0.0000 0.0000 0.0000 (  7729 PWs)   bands (ev):

    -9.4917  -8.9682  -7.2578  -7.2578  -7.2003  -7.1890  -7.1136  -7.0430
    -7.0354  -7.0354  -7.0180  -5.6940   1.6040   1.9797   4.6288   4.6288
     7.1323   7.2607   7.2607   8.8049  11.2233  14.3136  14.3136  14.4185

[...]

     the Fermi energy is     9.4532 ev

!    total energy              =   -1824.47199299 Ry
     Harris-Foulkes estimate   =   -1824.47199299 Ry
     estimated scf accuracy    <          3.4E-10 Ry

     total all-electron energy =    -83829.222708 Ry

     The total energy is the sum of the following terms:

     one-electron contribution =    -100.45106543 Ry
     hartree contribution      =      83.37878520 Ry
     xc contribution           =    -103.68718120 Ry
     ewald contribution        =    -227.76093370 Ry
     one-center paw contrib.   =   -1475.95159785 Ry
     smearing contrib. (-TS)   =       0.00000000 Ry

     convergence has been achieved in  10 iterations

     Forces acting on atoms (cartesian axes, Ry/au):

     atom    1 type  1   force =     0.00000000    0.00000000    0.00005248
     atom    2 type  1   force =     0.00000000    0.00000000   -0.00005248
     atom    3 type  2   force =     0.00000000    0.00000000    0.00000000
     atom    4 type  2   force =     0.00000000    0.00000000    0.00000000

     Total force =     0.000074     Total SCF correction =     0.000025
     SCF correction compared to forces is large: reduce conv_thr to get better values

     Computing stress (Cartesian axis) and pressure

          total   stress  (Ry/bohr**3)                   (kbar)     P=       36.66
   0.00029192   0.00000000   0.00000000           42.94        0.00        0.00
   0.00000000   0.00029192   0.00000000            0.00       42.94        0.00
   0.00000000   0.00000000   0.00016383            0.00        0.00       24.10

     BFGS Geometry Optimization

     number of scf cycles    =   1
     number of bfgs steps    =   0

     enthalpy new            =   -1824.4719929879 Ry

     new trust radius        =       0.0337709159 bohr
     new conv_thr            =       0.0000000100 Ry

     new unit-cell volume =    545.39047 a.u.^3 (    80.81853 Ang^3 )
     density =      9.17192 g/cm^3

CELL_PARAMETERS (alat=  7.51052754)
   1.007298013   0.000000000   0.000000000
   0.000000000   1.007298013   0.000000000
   0.000000000   0.000000000   1.268762286

ATOMIC_POSITIONS (crystal)
Pb            0.0000000000        0.5000000000        0.2415113869
Pb            0.5000000000        0.0000000000        0.7584886131
O             0.0000000000        0.0000000000        0.0000000000
O             0.5000000000        0.5000000000        0.0000000000

     Writing output data file ./output.save/
     NEW-OLD atomic charge density approx. for the potential
     extrapolated charge   40.73823, renormalised to   40.00000

[...]

     negative rho (up, down):  3.619E-05 0.000E+00

[...]

     Total force =     0.012426     Total SCF correction =     0.000016

[...]

     enthalpy old            =   -1824.4719929879 Ry
     enthalpy new            =   -1824.4740562606 Ry

     CASE: enthalpy_new < enthalpy_old

[...]

     negative rho (up, down):  1.171E-04 0.000E+00

[...]

     number of scf cycles    =  13
     number of bfgs steps    =  12

     enthalpy old            =   -1824.4788359862 Ry
     enthalpy new            =   -1824.4789130977 Ry

     CASE: enthalpy_new < enthalpy_old

     new trust radius        =       0.0226187367 bohr
     new conv_thr            =            1.0E-10 Ry

     new unit-cell volume =    619.86673 a.u.^3 (    91.85477 Ang^3 )
     density =      8.06993 g/cm^3

[...]

ATOMIC_POSITIONS (crystal)
Pb            0.0000000000        0.5000000000        0.2144582900
Pb            0.5000000000        0.0000000000        0.7855417100
O             0.0000000000        0.0000000000       -0.0000000000
O             0.5000000000        0.5000000000        0.0000000000

     Writing output data file ./output.save/
     NEW-OLD atomic charge density approx. for the potential
     extrapolated charge   40.24300, renormalised to   40.00000

[...]

     Total force =     0.000146     Total SCF correction =     0.000005

[...]

     bfgs converged in  14 scf cycles and  13 bfgs steps
     (criteria: energy <  1.0E-04 Ry, force <  1.0E-03Ry/Bohr, cell <  5.0E-01kbar)

     End of BFGS Geometry Optimization

     Final enthalpy =   -1824.4789274961 Ry
Begin final coordinates
     new unit-cell volume =    619.86673 a.u.^3 (    91.85477 Ang^3 )
     density =      8.06993 g/cm^3

CELL_PARAMETERS (alat=  7.51052754)
   1.023018199   0.000000000   0.000000000
   0.000000000   1.023018199   0.000000000
   0.000000000   0.000000000   1.398042192

ATOMIC_POSITIONS (crystal)
Pb            0.0000000000        0.5000000000        0.2144582900
Pb            0.5000000000        0.0000000000        0.7855417100
O             0.0000000000        0.0000000000       -0.0000000000
O             0.5000000000        0.5000000000        0.0000000000
End final coordinates

     Writing output data file ./output.save/

     Final scf calculation at the relaxed structure.
     The G-vectors are recalculated for the final unit cell
     Results may differ from those at the preceding step.

     bravais-lattice index     =            0
     lattice parameter (alat)  =       7.5105  a.u.
     unit-cell volume          =     619.8667 (a.u.)^3
     number of atoms/cell      =            4
     number of atomic types    =            2
     number of electrons       =        40.00
     number of Kohn-Sham states=           24
     kinetic-energy cutoff     =      90.0000  Ry
     charge density cutoff     =     900.0000  Ry
     convergence threshold     =      1.0E-10
     mixing beta               =       0.7000
     number of iterations used =            8  plain     mixing
     Exchange-correlation= PBE
                           (   1   4   3   4   0   0   0)

     celldm(1)=   7.510528  celldm(2)=   0.000000  celldm(3)=   0.000000
     celldm(4)=   0.000000  celldm(5)=   0.000000  celldm(6)=   0.000000

     crystal axes: (cart. coord. in units of alat)
               a(1) = (   1.023018   0.000000   0.000000 )
               a(2) = (   0.000000   1.023018   0.000000 )
               a(3) = (   0.000000   0.000000   1.398042 )

     reciprocal axes: (cart. coord. in units 2 pi/alat)
               b(1) = (  0.977500  0.000000  0.000000 )
               b(2) = (  0.000000  0.977500  0.000000 )
               b(3) = (  0.000000  0.000000  0.715286 )

     PseudoPot. # 1 for Pb read from file:
     ./Pb.pbe-dn-kjpaw_psl.0.2.2.UPF
     MD5 check sum: f59221ed870a8203cfe6076f2d6248d0
     Pseudo is Projector augmented-wave + core cor, Zval = 14.0
     Generated using "atomic" code by A. Dal Corso v.5.0.2 svn rev. 9415
     Shape of augmentation charge: PSQ
     Using radial grid of 1281 points,  6 beta functions with:
                l(1) =   0
                l(2) =   0
                l(3) =   1
                l(4) =   1
                l(5) =   2
                l(6) =   2
     Q(r) pseudized with 0 coefficients

     PseudoPot. # 2 for O  read from file:
     ./O.pbe-n-kjpaw_psl.0.1.UPF
     MD5 check sum: 833c495a5d0f9b75bf046115549bffff
     Pseudo is Projector augmented-wave + core cor, Zval =  6.0
     Generated using "atomic" code by A. Dal Corso v.6.3
     Shape of augmentation charge: BESSEL
     Using radial grid of 1095 points,  4 beta functions with:
                l(1) =   0
                l(2) =   0
                l(3) =   1
                l(4) =   1
     Q(r) pseudized with 0 coefficients

     atomic species   valence    mass     pseudopotential
        Pb            14.00   207.20000     Pb( 1.00)
        O              6.00    15.99900     O ( 1.00)

     16 Sym. Ops., with inversion, found ( 8 have fractional translation)

   Cartesian axes

     site n.     atom                  positions (alat units)
         1           Pb  tau(   1) = (   0.0000000   0.5115091   0.2998217  )
         2           Pb  tau(   2) = (   0.5115091   0.0000000   1.0982205  )
         3           O   tau(   3) = (   0.0000000   0.0000000  -0.0000000  )
         4           O   tau(   4) = (   0.5115091   0.5115091   0.0000000  )

     number of k points=    18  Marzari-Vanderbilt smearing, width (Ry)=  0.0050
                       cart. coord. in units 2pi/alat
        k(    1) = (   0.0000000   0.0000000   0.0000000), wk =   0.0160000
        k(    2) = (   0.0000000   0.0000000   0.1430572), wk =   0.0320000
        k(    3) = (   0.0000000   0.0000000   0.2861144), wk =   0.0320000
        k(    4) = (   0.0000000   0.1954999   0.0000000), wk =   0.0640000
        k(    5) = (   0.0000000   0.1954999   0.1430572), wk =   0.1280000
        k(    6) = (   0.0000000   0.1954999   0.2861144), wk =   0.1280000
        k(    7) = (   0.0000000   0.3909999   0.0000000), wk =   0.0640000
        k(    8) = (   0.0000000   0.3909999   0.1430572), wk =   0.1280000
        k(    9) = (   0.0000000   0.3909999   0.2861144), wk =   0.1280000
        k(   10) = (   0.1954999   0.1954999   0.0000000), wk =   0.0640000
        k(   11) = (   0.1954999   0.1954999   0.1430572), wk =   0.1280000
        k(   12) = (   0.1954999   0.1954999   0.2861144), wk =   0.1280000
        k(   13) = (   0.1954999   0.3909999   0.0000000), wk =   0.1280000
        k(   14) = (   0.1954999   0.3909999   0.1430572), wk =   0.2560000
        k(   15) = (   0.1954999   0.3909999   0.2861144), wk =   0.2560000
        k(   16) = (   0.3909999   0.3909999   0.0000000), wk =   0.0640000
        k(   17) = (   0.3909999   0.3909999   0.1430572), wk =   0.1280000
        k(   18) = (   0.3909999   0.3909999   0.2861144), wk =   0.1280000

     Initial potential from superposition of free atoms

     starting charge   39.99529, renormalised to   40.00000
     Starting wfcs are   26 randomized atomic wfcs
     Checking if some PAW data can be deallocated...

     Self-consistent Calculation

     iteration #  1     ecut=    90.00 Ry     beta= 0.70
     Davidson diagonalization with overlap
     c_bands:  1 eigenvalues not converged
     c_bands:  1 eigenvalues not converged
     ethr =  1.00E-06,  avg # of iterations = 14.2

[...]

     total energy              =   -1824.47909868 Ry
     Harris-Foulkes estimate   =   -1824.47909868 Ry
     estimated scf accuracy    <          2.7E-09 Ry

     iteration # 17     ecut=    90.00 Ry     beta= 0.70
     Davidson diagonalization with overlap
     ethr =  6.82E-12,  avg # of iterations =  2.8

     End of self-consistent calculation

[...]

          k = 0.3910 0.3910 0.2861 (  8938 PWs)   bands (ev):

   -10.7245 -10.6926  -8.9160  -8.8994  -8.8676  -8.8586  -8.8480  -8.8425
    -8.8348  -8.8302  -8.1354  -7.9765  -0.9157  -0.6889   3.2030   3.7287
     5.1154   5.4409   5.6775   6.0420   9.9591  10.2952  11.0453  11.7290

     the Fermi energy is     6.9124 ev

!    total energy              =   -1824.47909868 Ry
     Harris-Foulkes estimate   =   -1824.47909868 Ry
     estimated scf accuracy    <          8.4E-11 Ry

     total all-electron energy =    -83829.229813 Ry

     The total energy is the sum of the following terms:

     one-electron contribution =    -139.15535432 Ry
     hartree contribution      =     100.14892422 Ry
     xc contribution           =    -103.58208637 Ry
     ewald contribution        =    -205.94502502 Ry
     one-center paw contrib.   =   -1475.94559946 Ry
     smearing contrib. (-TS)   =       0.00004226 Ry

     convergence has been achieved in  17 iterations

     Forces acting on atoms (cartesian axes, Ry/au):

     atom    1 type  1   force =     0.00000000    0.00000000    0.00009078
     atom    2 type  1   force =     0.00000000    0.00000000   -0.00009078
     atom    3 type  2   force =     0.00000000    0.00000000    0.00000000
     atom    4 type  2   force =     0.00000000    0.00000000    0.00000000

     Total force =     0.000128     Total SCF correction =     0.000014
     SCF correction compared to forces is large: reduce conv_thr to get better values

     Computing stress (Cartesian axis) and pressure

          total   stress  (Ry/bohr**3)                   (kbar)     P=        0.65
   0.00000431   0.00000000   0.00000000            0.63        0.00        0.00
   0.00000000   0.00000431   0.00000000            0.00        0.63        0.00
   0.00000000   0.00000000   0.00000464            0.00        0.00        0.68

     Writing output data file ./output.save/

     General routines

     Parallel routines

   This run was terminated on:  19:53:35   9May2021

   JOB DONE.